resources = [3,3,1,3,3,1];
horizon = 12;
norders = 8;
dist = [100,30,20,15,20,35,25,150];
weight = [HEAVY,LIGHT,LIGHT,ULTRA,MEDIUM,LIGHT,HEAVY,HEAVY];
packtime = [1,2,3,5];
available = [0,0,3,5,7,5,10,2];
value = [5,5,5,5,5,5,5,5];
ndrones = 4;
arrival = [3,7,0,4];
charge  = [4,6,5,6];